<number of tasks>
70

<cycle time>
527

<task times>
1 17
2 66
3 54
4 52
5 6
6 88
7 21
8 128
9 68
10 70
11 85
12 21
13 134
14 135
15 94
16 90
17 50
18 143
19 19
20 54
21 50
22 40
23 73
24 12
25 152
26 42
27 45
28 74
29 26
30 11
31 31
32 50
33 102
34 46
35 35
36 40
37 2
38 1
39 3
40 13
41 16
42 25
43 21
44 43
45 30
46 83
47 89
48 56
49 59
50 43
51 11
52 26
53 44
54 121
55 38
56 68
57 22
58 7
59 16
60 32
61 25
62 27
63 156
64 28
65 15
66 26
67 18
68 72
69 23
70 27

<precedence relations>
1,2
1,41
1,69
1,70
2,3
3,4
3,68
4,6
4,7
5,6
5,24
5,30
6,8
7,8
8,12
9,10
10,11
11,12
12,13
12,14
13,23
14,23
15,16
16,17
16,18
17,19
18,19
19,20
19,22
19,57
20,21
21,23
22,23
23,25
23,31
23,33
24,25
25,26
25,27
25,28
25,29
26,35
27,35
28,35
29,35
30,31
31,32
32,35
33,34
34,35
35,36
35,44
35,48
35,51
35,53
35,56
35,60
35,61
35,62
36,37
37,38
38,39
39,40
40,42
41,42
42,43
43,50
44,45
45,46
46,47
47,50
48,49
49,50
51,52
52,54
53,54
54,55
57,58
58,59
59,60
61,65
62,63
63,64
64,65
64,66
64,67

<setup times forward>
1,11:20
1,16:20
1,17:8
1,18:20
1,19:8
1,20:8
1,21:8
1,22:8
1,30:20
1,41:20
1,57:8
1,58:8
1,59:8
1,69:1
1,70:1
2,11:20
2,16:20
2,17:8
2,18:20
2,19:8
2,20:8
2,21:8
2,22:8
2,30:20
2,41:20
2,57:8
2,58:8
2,59:8
2,69:1
2,70:1
3,11:20
3,16:20
3,17:8
3,18:20
3,19:8
3,20:8
3,21:8
3,22:8
3,30:20
3,41:20
3,57:8
3,58:8
3,59:8
3,68:1
3,69:1
3,70:1
4,7:20
4,11:20
4,16:20
4,17:8
4,18:20
4,19:8
4,20:8
4,21:8
4,22:8
4,30:20
4,41:20
4,57:8
4,58:8
4,59:8
4,68:1
4,69:1
4,70:1
5,7:20
5,11:20
5,16:20
5,17:8
5,18:20
5,19:8
5,20:8
5,21:8
5,22:8
5,30:20
5,41:20
5,57:8
5,58:8
5,59:8
5,68:1
5,69:1
5,70:1
6,7:20
6,8:20
6,11:20
6,16:20
6,17:8
6,18:20
6,19:8
6,20:8
6,21:8
6,22:8
6,30:20
6,41:20
6,57:8
6,58:8
6,59:8
6,68:1
6,69:1
6,70:1
7,5:20
7,6:20
7,9:20
7,10:20
7,15:20
7,17:28
7,19:28
7,20:28
7,21:28
7,22:28
7,24:20
7,57:28
7,58:28
7,59:28
7,68:21
7,69:21
7,70:21
8,9:20
8,10:20
8,15:20
8,17:28
8,19:28
8,20:28
8,21:28
8,22:28
8,24:20
8,57:28
8,58:28
8,59:28
8,68:21
8,69:21
8,70:21
9,7:20
9,8:20
9,16:20
9,17:8
9,18:20
9,19:8
9,20:8
9,21:8
9,22:8
9,30:20
9,41:20
9,57:8
9,58:8
9,59:8
9,68:1
9,69:1
9,70:1
10,7:20
10,8:20
10,11:20
10,16:20
10,17:8
10,18:20
10,19:8
10,20:8
10,21:8
10,22:8
10,30:20
10,41:20
10,57:8
10,58:8
10,59:8
10,68:1
10,69:1
10,70:1
11,1:20
11,2:20
11,3:20
11,4:20
11,5:20
11,6:20
11,15:20
11,17:28
11,19:28
11,20:28
11,21:28
11,22:28
11,24:20
11,57:28
11,58:28
11,59:28
11,68:21
11,69:21
11,70:21
12,13:28
12,14:28
12,15:20
12,17:28
12,19:28
12,20:28
12,21:28
12,22:28
12,24:20
12,57:28
12,58:28
12,59:28
12,68:21
12,69:21
12,70:21
13,15:8
13,16:28
13,18:28
13,23:15
13,24:8
13,30:28
13,41:28
13,68:7
13,69:7
13,70:7
14,15:8
14,16:28
14,18:28
14,23:15
14,24:8
14,30:28
14,41:28
14,68:7
14,69:7
14,70:7
15,7:20
15,8:20
15,11:20
15,12:20
15,13:8
15,14:8
15,16:20
15,30:20
15,41:20
15,68:1
15,69:1
15,70:1
16,1:20
16,2:20
16,3:20
16,4:20
16,5:20
16,6:20
16,9:20
16,10:20
16,13:28
16,14:28
16,17:28
16,24:20
16,68:21
16,69:21
16,70:21
17,1:8
17,2:8
17,3:8
17,4:8
17,5:8
17,6:8
17,7:28
17,8:28
17,9:8
17,10:8
17,11:28
17,12:28
17,18:28
17,24:8
17,30:28
17,41:28
17,68:7
17,69:7
17,70:7
18,1:20
18,2:20
18,3:20
18,4:20
18,5:20
18,6:20
18,9:20
18,10:20
18,13:28
18,14:28
18,17:28
18,19:28
18,24:20
18,68:21
18,69:21
18,70:21
19,1:8
19,2:8
19,3:8
19,4:8
19,5:8
19,6:8
19,7:28
19,8:28
19,9:8
19,10:8
19,11:28
19,12:28
19,24:8
19,30:28
19,41:28
19,68:7
19,69:7
19,70:7
20,1:8
20,2:8
20,3:8
20,4:8
20,5:8
20,6:8
20,7:28
20,8:28
20,9:8
20,10:8
20,11:28
20,12:28
20,24:8
20,30:28
20,41:28
20,68:7
20,69:7
20,70:7
21,1:8
21,2:8
21,3:8
21,4:8
21,5:8
21,6:8
21,7:28
21,8:28
21,9:8
21,10:8
21,11:28
21,12:28
21,23:15
21,24:8
21,30:28
21,41:28
21,68:7
21,69:7
21,70:7
22,1:8
22,2:8
22,3:8
22,4:8
22,5:8
22,6:8
22,7:28
22,8:28
22,9:8
22,10:8
22,11:28
22,12:28
22,23:15
22,24:8
22,30:28
22,41:28
22,68:7
22,69:7
22,70:7
23,24:7
23,30:13
23,41:13
23,57:15
23,58:15
23,59:15
23,68:8
23,69:8
23,70:8
24,7:20
24,8:20
24,11:20
24,12:20
24,13:8
24,14:8
24,16:20
24,17:8
24,18:20
24,19:8
24,20:8
24,21:8
24,22:8
24,23:7
24,25:7
24,30:20
24,31:7
24,32:7
24,33:7
24,34:5
24,41:20
24,57:8
24,58:8
24,59:8
24,68:1
24,69:1
24,70:1
25,26:2
25,29:2
25,30:13
25,34:2
25,41:13
25,57:15
25,58:15
25,59:15
25,68:8
25,69:8
25,70:8
26,27:2
26,28:2
26,30:15
26,31:2
26,32:2
26,33:2
26,41:15
26,57:13
26,58:13
26,59:13
26,68:6
26,69:6
26,70:6
27,26:2
27,29:2
27,30:13
27,34:2
27,35:2
27,41:13
27,57:15
27,58:15
27,59:15
27,68:8
27,69:8
27,70:8
28,26:2
28,29:2
28,30:13
28,34:2
28,35:2
28,41:13
28,57:15
28,58:15
28,59:15
28,68:8
28,69:8
28,70:8
29,27:2
29,28:2
29,30:15
29,31:2
29,32:2
29,33:2
29,41:15
29,57:13
29,58:13
29,59:13
29,68:6
29,69:6
29,70:6
30,1:20
30,2:20
30,3:20
30,4:20
30,6:20
30,9:20
30,10:20
30,13:28
30,14:28
30,15:20
30,17:28
30,19:28
30,20:28
30,21:28
30,22:28
30,23:13
30,24:20
30,25:13
30,26:15
30,27:13
30,28:13
30,29:15
30,31:13
30,33:13
30,34:15
30,57:28
30,58:28
30,59:28
30,68:21
30,69:21
30,70:21
31,24:7
31,26:2
31,29:2
31,34:2
31,41:13
31,57:15
31,58:15
31,59:15
31,68:8
31,69:8
31,70:8
32,24:7
32,26:2
32,29:2
32,34:2
32,35:2
32,41:13
32,57:15
32,58:15
32,59:15
32,68:8
32,69:8
32,70:8
33,24:7
33,26:2
33,29:2
33,30:13
33,34:2
33,41:13
33,57:15
33,58:15
33,59:15
33,68:8
33,69:8
33,70:8
34,24:5
34,25:2
34,27:2
34,28:2
34,30:15
34,31:2
34,32:2
34,41:15
34,57:13
34,58:13
34,59:13
34,68:6
34,69:6
34,70:6
35,36:16
35,41:15
35,48:16
35,53:16
35,56:6
35,57:13
35,58:13
35,59:13
35,60:6
35,61:16
35,68:6
35,69:6
35,70:6
36,41:31
36,44:16
36,45:16
36,46:16
36,51:16
36,52:16
36,55:10
36,56:10
36,57:3
36,58:3
36,59:3
36,60:10
36,62:16
36,63:16
36,65:10
36,66:10
36,67:10
36,68:10
36,69:10
36,70:10
37,41:31
37,44:16
37,45:16
37,46:16
37,51:16
37,52:16
37,55:10
37,56:10
37,57:3
37,58:3
37,59:3
37,60:10
37,62:16
37,63:16
37,65:10
37,66:10
37,67:10
37,68:10
37,69:10
37,70:10
38,41:31
38,44:16
38,45:16
38,46:16
38,51:16
38,52:16
38,55:10
38,56:10
38,57:3
38,58:3
38,59:3
38,60:10
38,62:16
38,63:16
38,65:10
38,66:10
38,67:10
38,68:10
38,69:10
38,70:10
39,41:31
39,44:16
39,45:16
39,46:16
39,51:16
39,52:16
39,55:10
39,56:10
39,57:3
39,58:3
39,59:3
39,60:10
39,62:16
39,63:16
39,65:10
39,66:10
39,67:10
39,68:10
39,69:10
39,70:10
40,41:31
40,44:16
40,45:16
40,46:16
40,51:16
40,52:16
40,55:10
40,56:10
40,57:3
40,58:3
40,59:3
40,60:10
40,62:16
40,63:16
40,65:10
40,66:10
40,67:10
40,68:10
40,69:10
40,70:10
41,2:20
41,3:20
41,4:20
41,5:20
41,6:20
41,9:20
41,10:20
41,13:28
41,14:28
41,15:20
41,17:28
41,19:28
41,20:28
41,21:28
41,22:28
41,23:13
41,24:20
41,25:13
41,26:15
41,27:13
41,28:13
41,29:15
41,31:13
41,32:13
41,33:13
41,34:15
41,35:15
41,36:31
41,37:31
41,38:31
41,39:31
41,40:31
41,42:31
41,44:15
41,45:15
41,46:15
41,47:31
41,48:31
41,49:31
41,51:15
41,52:15
41,53:31
41,54:31
41,55:21
41,56:21
41,57:28
41,58:28
41,59:28
41,60:21
41,61:31
41,62:15
41,63:15
41,64:31
41,65:21
41,66:21
41,67:21
41,68:21
41,69:21
41,70:21
42,44:16
42,45:16
42,46:16
42,51:16
42,52:16
42,55:10
42,56:10
42,57:3
42,58:3
42,59:3
42,60:10
42,62:16
42,63:16
42,65:10
42,66:10
42,67:10
42,68:10
42,69:10
42,70:10
43,44:16
43,45:16
43,46:16
43,50:10
43,51:16
43,52:16
43,55:10
43,56:10
43,57:3
43,58:3
43,59:3
43,60:10
43,62:16
43,63:16
43,65:10
43,66:10
43,67:10
43,68:10
43,69:10
43,70:10
44,36:16
44,37:16
44,38:16
44,39:16
44,40:16
44,41:15
44,42:16
44,43:16
44,48:16
44,49:16
44,53:16
44,54:16
44,55:6
44,56:6
44,57:13
44,58:13
44,59:13
44,60:6
44,61:16
44,64:16
44,65:6
44,66:6
44,67:6
44,68:6
44,69:6
44,70:6
45,36:16
45,37:16
45,38:16
45,39:16
45,40:16
45,41:15
45,42:16
45,43:16
45,48:16
45,49:16
45,53:16
45,54:16
45,55:6
45,56:6
45,57:13
45,58:13
45,59:13
45,60:6
45,61:16
45,64:16
45,65:6
45,66:6
45,67:6
45,68:6
45,69:6
45,70:6
46,36:16
46,37:16
46,38:16
46,39:16
46,40:16
46,41:15
46,42:16
46,43:16
46,47:16
46,48:16
46,49:16
46,53:16
46,54:16
46,55:6
46,56:6
46,57:13
46,58:13
46,59:13
46,60:6
46,61:16
46,64:16
46,65:6
46,66:6
46,67:6
46,68:6
46,69:6
46,70:6
47,41:31
47,50:10
47,51:16
47,52:16
47,55:10
47,56:10
47,57:3
47,58:3
47,59:3
47,60:10
47,62:16
47,63:16
47,65:10
47,66:10
47,67:10
47,68:10
47,69:10
47,70:10
48,41:31
48,44:16
48,45:16
48,46:16
48,51:16
48,52:16
48,55:10
48,56:10
48,57:3
48,58:3
48,59:3
48,60:10
48,62:16
48,63:16
48,65:10
48,66:10
48,67:10
48,68:10
48,69:10
48,70:10
49,41:31
49,44:16
49,45:16
49,46:16
49,50:10
49,51:16
49,52:16
49,55:10
49,56:10
49,57:3
49,58:3
49,59:3
49,60:10
49,62:16
49,63:16
49,65:10
49,66:10
49,67:10
49,68:10
49,69:10
49,70:10
50,51:6
50,52:6
50,53:10
50,54:10
50,57:7
50,58:7
50,59:7
50,61:10
50,62:6
50,63:6
50,64:10
51,36:16
51,37:16
51,38:16
51,39:16
51,40:16
51,41:15
51,42:16
51,43:16
51,47:16
51,48:16
51,49:16
51,50:6
51,53:16
51,56:6
51,57:13
51,58:13
51,59:13
51,60:6
51,61:16
51,64:16
51,65:6
51,66:6
51,67:6
51,68:6
51,69:6
51,70:6
52,36:16
52,37:16
52,38:16
52,39:16
52,40:16
52,41:15
52,42:16
52,43:16
52,47:16
52,48:16
52,49:16
52,50:6
52,53:16
52,54:16
52,56:6
52,57:13
52,58:13
52,59:13
52,60:6
52,61:16
52,64:16
52,65:6
52,66:6
52,67:6
52,68:6
52,69:6
52,70:6
53,41:31
53,44:16
53,45:16
53,46:16
53,50:10
53,51:16
53,52:16
53,56:10
53,57:3
53,58:3
53,59:3
53,60:10
53,62:16
53,63:16
53,65:10
53,66:10
53,67:10
53,68:10
53,69:10
53,70:10
54,41:31
54,44:16
54,45:16
54,46:16
54,50:10
54,55:10
54,56:10
54,57:3
54,58:3
54,59:3
54,60:10
54,62:16
54,63:16
54,65:10
54,66:10
54,67:10
54,68:10
54,69:10
54,70:10
55,36:10
55,37:10
55,38:10
55,39:10
55,40:10
55,41:21
55,42:10
55,43:10
55,44:6
55,45:6
55,46:6
55,47:10
55,48:10
55,49:10
55,57:7
55,58:7
55,59:7
55,61:10
55,62:6
55,63:6
55,64:10
56,36:10
56,37:10
56,38:10
56,39:10
56,40:10
56,41:21
56,42:10
56,43:10
56,44:6
56,45:6
56,46:6
56,47:10
56,48:10
56,49:10
56,51:6
56,52:6
56,53:10
56,54:10
56,57:7
56,58:7
56,59:7
56,61:10
56,62:6
56,63:6
56,64:10
57,1:8
57,2:8
57,3:8
57,4:8
57,5:8
57,6:8
57,7:28
57,8:28
57,9:8
57,10:8
57,11:28
57,12:28
57,23:15
57,24:8
57,25:15
57,26:13
57,27:15
57,28:15
57,29:13
57,30:28
57,31:15
57,32:15
57,33:15
57,34:13
57,35:13
57,36:3
57,37:3
57,38:3
57,39:3
57,40:3
57,41:28
57,42:3
57,43:3
57,44:13
57,45:13
57,46:13
57,47:3
57,48:3
57,49:3
57,50:7
57,51:13
57,52:13
57,53:3
57,54:3
57,55:7
57,56:7
57,61:3
57,62:13
57,63:13
57,64:3
57,65:7
57,66:7
57,67:7
57,68:7
57,69:7
57,70:7
58,1:8
58,2:8
58,3:8
58,4:8
58,5:8
58,6:8
58,7:28
58,8:28
58,9:8
58,10:8
58,11:28
58,12:28
58,23:15
58,24:8
58,25:15
58,26:13
58,27:15
58,28:15
58,29:13
58,30:28
58,31:15
58,32:15
58,33:15
58,34:13
58,35:13
58,36:3
58,37:3
58,38:3
58,39:3
58,40:3
58,41:28
58,42:3
58,43:3
58,44:13
58,45:13
58,46:13
58,47:3
58,48:3
58,49:3
58,50:7
58,51:13
58,52:13
58,53:3
58,54:3
58,55:7
58,56:7
58,61:3
58,62:13
58,63:13
58,64:3
58,65:7
58,66:7
58,67:7
58,68:7
58,69:7
58,70:7
59,1:8
59,2:8
59,3:8
59,4:8
59,5:8
59,6:8
59,7:28
59,8:28
59,9:8
59,10:8
59,11:28
59,12:28
59,23:15
59,24:8
59,25:15
59,26:13
59,27:15
59,28:15
59,29:13
59,30:28
59,31:15
59,32:15
59,33:15
59,34:13
59,35:13
59,36:3
59,37:3
59,38:3
59,39:3
59,40:3
59,41:28
59,42:3
59,43:3
59,44:13
59,45:13
59,46:13
59,47:3
59,48:3
59,49:3
59,50:7
59,51:13
59,52:13
59,53:3
59,54:3
59,55:7
59,56:7
59,60:7
59,61:3
59,62:13
59,63:13
59,64:3
59,65:7
59,66:7
59,67:7
59,68:7
59,69:7
59,70:7
60,36:10
60,37:10
60,38:10
60,39:10
60,40:10
60,41:21
60,42:10
60,43:10
60,44:6
60,45:6
60,46:6
60,47:10
60,48:10
60,49:10
60,51:6
60,52:6
60,53:10
60,54:10
60,61:10
60,62:6
60,63:6
60,64:10
61,41:31
61,44:16
61,45:16
61,46:16
61,50:10
61,51:16
61,52:16
61,55:10
61,56:10
61,57:3
61,58:3
61,59:3
61,60:10
61,62:16
61,63:16
61,65:10
61,66:10
61,67:10
61,68:10
61,69:10
61,70:10
62,36:16
62,37:16
62,38:16
62,39:16
62,40:16
62,41:15
62,42:16
62,43:16
62,47:16
62,48:16
62,49:16
62,50:6
62,53:16
62,54:16
62,55:6
62,56:6
62,57:13
62,58:13
62,59:13
62,60:6
62,61:16
62,68:6
62,69:6
62,70:6
63,36:16
63,37:16
63,38:16
63,39:16
63,40:16
63,41:15
63,42:16
63,43:16
63,47:16
63,48:16
63,49:16
63,50:6
63,53:16
63,54:16
63,55:6
63,56:6
63,57:13
63,58:13
63,59:13
63,60:6
63,61:16
63,64:16
63,68:6
63,69:6
63,70:6
64,41:31
64,44:16
64,45:16
64,46:16
64,50:10
64,51:16
64,52:16
64,55:10
64,56:10
64,57:3
64,58:3
64,59:3
64,60:10
64,65:10
64,66:10
64,67:10
64,68:10
64,69:10
64,70:10
65,36:10
65,37:10
65,38:10
65,39:10
65,40:10
65,41:21
65,42:10
65,43:10
65,44:6
65,45:6
65,46:6
65,47:10
65,48:10
65,49:10
65,51:6
65,52:6
65,53:10
65,54:10
65,57:7
65,58:7
65,59:7
66,36:10
66,37:10
66,38:10
66,39:10
66,40:10
66,41:21
66,42:10
66,43:10
66,44:6
66,45:6
66,46:6
66,47:10
66,48:10
66,49:10
66,51:6
66,52:6
66,53:10
66,54:10
66,57:7
66,58:7
66,59:7
66,61:10
67,36:10
67,37:10
67,38:10
67,39:10
67,40:10
67,41:21
67,42:10
67,43:10
67,44:6
67,45:6
67,46:6
67,47:10
67,48:10
67,49:10
67,51:6
67,52:6
67,53:10
67,54:10
67,57:7
67,58:7
67,59:7
67,61:10
68,4:1
68,5:1
68,6:1
68,7:21
68,8:21
68,9:1
68,10:1
68,11:21
68,12:21
68,13:7
68,14:7
68,15:1
68,16:21
68,17:7
68,18:21
68,19:7
68,20:7
68,21:7
68,22:7
68,23:8
68,24:1
68,25:8
68,26:6
68,27:8
68,28:8
68,29:6
68,30:21
68,31:8
68,32:8
68,33:8
68,34:6
68,35:6
68,36:10
68,37:10
68,38:10
68,39:10
68,40:10
68,41:21
68,42:10
68,43:10
68,44:6
68,45:6
68,46:6
68,47:10
68,48:10
68,49:10
68,51:6
68,52:6
68,53:10
68,54:10
68,57:7
68,58:7
68,59:7
68,61:10
68,62:6
68,63:6
68,64:10
69,2:1
69,3:1
69,4:1
69,5:1
69,6:1
69,7:21
69,8:21
69,9:1
69,10:1
69,11:21
69,12:21
69,13:7
69,14:7
69,15:1
69,16:21
69,17:7
69,18:21
69,19:7
69,20:7
69,21:7
69,22:7
69,23:8
69,24:1
69,25:8
69,26:6
69,27:8
69,28:8
69,29:6
69,30:21
69,31:8
69,32:8
69,33:8
69,34:6
69,35:6
69,36:10
69,37:10
69,38:10
69,39:10
69,40:10
69,41:21
69,42:10
69,43:10
69,44:6
69,45:6
69,46:6
69,47:10
69,48:10
69,49:10
69,51:6
69,52:6
69,53:10
69,54:10
69,57:7
69,58:7
69,59:7
69,61:10
69,62:6
69,63:6
69,64:10
70,2:1
70,3:1
70,4:1
70,5:1
70,6:1
70,7:21
70,8:21
70,9:1
70,10:1
70,11:21
70,12:21
70,13:7
70,14:7
70,15:1
70,16:21
70,17:7
70,18:21
70,19:7
70,20:7
70,21:7
70,22:7
70,23:8
70,24:1
70,25:8
70,26:6
70,27:8
70,28:8
70,29:6
70,30:21
70,31:8
70,32:8
70,33:8
70,34:6
70,35:6
70,36:10
70,37:10
70,38:10
70,39:10
70,40:10
70,41:21
70,42:10
70,43:10
70,44:6
70,45:6
70,46:6
70,47:10
70,48:10
70,49:10
70,51:6
70,52:6
70,53:10
70,54:10
70,57:7
70,58:7
70,59:7
70,61:10
70,62:6
70,63:6
70,64:10

<setup times backward>
1,17:8
1,19:8
1,20:8
1,21:8
1,22:8
1,57:8
1,58:8
1,59:8
2,17:8
2,19:8
2,20:8
2,21:8
2,22:8
2,57:8
2,58:8
2,59:8
2,69:1
2,70:1
3,17:8
3,19:8
3,20:8
3,21:8
3,22:8
3,57:8
3,58:8
3,59:8
3,69:1
3,70:1
4,17:8
4,19:8
4,20:8
4,21:8
4,22:8
4,57:8
4,58:8
4,59:8
4,68:1
4,69:1
4,70:1
5,17:8
5,19:8
5,20:8
5,21:8
5,22:8
5,57:8
5,58:8
5,59:8
5,68:1
5,69:1
5,70:1
6,17:8
6,19:8
6,20:8
6,21:8
6,22:8
6,57:8
6,58:8
6,59:8
6,68:1
6,69:1
6,70:1
7,1:20
7,2:20
7,3:20
7,4:20
7,5:20
7,6:20
7,9:20
7,10:20
7,15:20
7,17:28
7,19:28
7,20:28
7,21:28
7,22:28
7,24:20
7,57:28
7,58:28
7,59:28
7,68:21
7,69:21
7,70:21
8,1:20
8,2:20
8,3:20
8,4:20
8,5:20
8,6:20
8,9:20
8,10:20
8,15:20
8,17:28
8,19:28
8,20:28
8,21:28
8,22:28
8,24:20
8,57:28
8,58:28
8,59:28
8,68:21
8,69:21
8,70:21
9,17:8
9,19:8
9,20:8
9,21:8
9,22:8
9,57:8
9,58:8
9,59:8
9,68:1
9,69:1
9,70:1
10,17:8
10,19:8
10,20:8
10,21:8
10,22:8
10,57:8
10,58:8
10,59:8
10,68:1
10,69:1
10,70:1
11,1:20
11,2:20
11,3:20
11,4:20
11,5:20
11,6:20
11,9:20
11,10:20
11,15:20
11,17:28
11,19:28
11,20:28
11,21:28
11,22:28
11,24:20
11,57:28
11,58:28
11,59:28
11,68:21
11,69:21
11,70:21
12,1:20
12,2:20
12,3:20
12,4:20
12,5:20
12,6:20
12,9:20
12,10:20
12,15:20
12,17:28
12,19:28
12,20:28
12,21:28
12,22:28
12,24:20
12,57:28
12,58:28
12,59:28
12,68:21
12,69:21
12,70:21
15,13:8
15,14:8
15,68:1
15,69:1
15,70:1
16,1:20
16,2:20
16,3:20
16,4:20
16,5:20
16,6:20
16,9:20
16,10:20
16,13:28
16,14:28
16,15:20
16,24:20
16,68:21
16,69:21
16,70:21
18,1:20
18,2:20
18,3:20
18,4:20
18,5:20
18,6:20
18,9:20
18,10:20
18,13:28
18,14:28
18,15:20
18,17:28
18,24:20
18,68:21
18,69:21
18,70:21
23,1:7
23,2:7
23,3:7
23,4:7
23,5:7
23,6:7
23,9:7
23,10:7
23,13:15
23,14:15
23,15:7
23,17:15
23,19:15
23,20:15
23,21:15
23,22:15
23,24:7
23,57:15
23,58:15
23,59:15
23,68:8
23,69:8
23,70:8
24,13:8
24,14:8
24,17:8
24,19:8
24,20:8
24,21:8
24,22:8
24,57:8
24,58:8
24,59:8
24,68:1
24,69:1
24,70:1
25,1:7
25,2:7
25,3:7
25,4:7
25,5:7
25,6:7
25,9:7
25,10:7
25,13:15
25,14:15
25,15:7
25,17:15
25,19:15
25,20:15
25,21:15
25,22:15
25,24:7
25,34:2
25,57:15
25,58:15
25,59:15
25,68:8
25,69:8
25,70:8
26,1:5
26,2:5
26,3:5
26,4:5
26,5:5
26,6:5
26,9:5
26,10:5
26,13:13
26,14:13
26,15:5
26,17:13
26,19:13
26,20:13
26,21:13
26,22:13
26,24:5
26,57:13
26,58:13
26,59:13
26,68:6
26,69:6
26,70:6
27,1:7
27,2:7
27,3:7
27,4:7
27,5:7
27,6:7
27,9:7
27,10:7
27,13:15
27,14:15
27,15:7
27,17:15
27,19:15
27,20:15
27,21:15
27,22:15
27,24:7
27,26:2
27,29:2
27,34:2
27,57:15
27,58:15
27,59:15
27,68:8
27,69:8
27,70:8
28,1:7
28,2:7
28,3:7
28,4:7
28,5:7
28,6:7
28,9:7
28,10:7
28,13:15
28,14:15
28,15:7
28,17:15
28,19:15
28,20:15
28,21:15
28,22:15
28,24:7
28,26:2
28,29:2
28,34:2
28,57:15
28,58:15
28,59:15
28,68:8
28,69:8
28,70:8
29,1:5
29,2:5
29,3:5
29,4:5
29,5:5
29,6:5
29,9:5
29,10:5
29,13:13
29,14:13
29,15:5
29,17:13
29,19:13
29,20:13
29,21:13
29,22:13
29,24:5
29,57:13
29,58:13
29,59:13
29,68:6
29,69:6
29,70:6
30,1:20
30,2:20
30,3:20
30,4:20
30,5:20
30,6:20
30,9:20
30,10:20
30,13:28
30,14:28
30,15:20
30,17:28
30,19:28
30,20:28
30,21:28
30,22:28
30,23:13
30,24:20
30,25:13
30,26:15
30,27:13
30,28:13
30,29:15
30,33:13
30,34:15
30,57:28
30,58:28
30,59:28
30,68:21
30,69:21
30,70:21
31,1:7
31,2:7
31,3:7
31,4:7
31,5:7
31,6:7
31,9:7
31,10:7
31,13:15
31,14:15
31,15:7
31,17:15
31,19:15
31,20:15
31,21:15
31,22:15
31,24:7
31,26:2
31,29:2
31,34:2
31,57:15
31,58:15
31,59:15
31,68:8
31,69:8
31,70:8
32,1:7
32,2:7
32,3:7
32,4:7
32,5:7
32,6:7
32,9:7
32,10:7
32,13:15
32,14:15
32,15:7
32,17:15
32,19:15
32,20:15
32,21:15
32,22:15
32,24:7
32,26:2
32,29:2
32,34:2
32,57:15
32,58:15
32,59:15
32,68:8
32,69:8
32,70:8
33,1:7
33,2:7
33,3:7
33,4:7
33,5:7
33,6:7
33,9:7
33,10:7
33,13:15
33,14:15
33,15:7
33,17:15
33,19:15
33,20:15
33,21:15
33,22:15
33,24:7
33,26:2
33,29:2
33,57:15
33,58:15
33,59:15
33,68:8
33,69:8
33,70:8
34,1:5
34,2:5
34,3:5
34,4:5
34,5:5
34,6:5
34,9:5
34,10:5
34,13:13
34,14:13
34,15:5
34,17:13
34,19:13
34,20:13
34,21:13
34,22:13
34,24:5
34,57:13
34,58:13
34,59:13
34,68:6
34,69:6
34,70:6
35,1:5
35,2:5
35,3:5
35,4:5
35,5:5
35,6:5
35,9:5
35,10:5
35,13:13
35,14:13
35,15:5
35,17:13
35,19:13
35,20:13
35,21:13
35,22:13
35,24:5
35,57:13
35,58:13
35,59:13
35,68:6
35,69:6
35,70:6
41,1:20
41,2:20
41,3:20
41,4:20
41,5:20
41,6:20
41,9:20
41,10:20
41,13:28
41,14:28
41,15:20
41,17:28
41,19:28
41,20:28
41,21:28
41,22:28
41,23:13
41,24:20
41,25:13
41,26:15
41,27:13
41,28:13
41,29:15
41,31:13
41,32:13
41,33:13
41,34:15
41,35:15
41,36:31
41,37:31
41,38:31
41,39:31
41,40:31
41,44:15
41,45:15
41,46:15
41,47:31
41,48:31
41,49:31
41,51:15
41,52:15
41,53:31
41,54:31
41,55:21
41,56:21
41,57:28
41,58:28
41,59:28
41,60:21
41,61:31
41,62:15
41,63:15
41,64:31
41,65:21
41,66:21
41,67:21
41,68:21
41,69:21
41,70:21
44,1:5
44,2:5
44,3:5
44,4:5
44,5:5
44,6:5
44,9:5
44,10:5
44,13:13
44,14:13
44,15:5
44,17:13
44,19:13
44,20:13
44,21:13
44,22:13
44,24:5
44,36:16
44,37:16
44,38:16
44,39:16
44,40:16
44,42:16
44,43:16
44,48:16
44,49:16
44,53:16
44,54:16
44,55:6
44,56:6
44,57:13
44,58:13
44,59:13
44,60:6
44,61:16
44,64:16
44,65:6
44,66:6
44,67:6
44,68:6
44,69:6
44,70:6
45,1:5
45,2:5
45,3:5
45,4:5
45,5:5
45,6:5
45,9:5
45,10:5
45,13:13
45,14:13
45,15:5
45,17:13
45,19:13
45,20:13
45,21:13
45,22:13
45,24:5
45,36:16
45,37:16
45,38:16
45,39:16
45,40:16
45,42:16
45,43:16
45,48:16
45,49:16
45,53:16
45,54:16
45,55:6
45,56:6
45,57:13
45,58:13
45,59:13
45,60:6
45,61:16
45,64:16
45,65:6
45,66:6
45,67:6
45,68:6
45,69:6
45,70:6
46,1:5
46,2:5
46,3:5
46,4:5
46,5:5
46,6:5
46,9:5
46,10:5
46,13:13
46,14:13
46,15:5
46,17:13
46,19:13
46,20:13
46,21:13
46,22:13
46,24:5
46,36:16
46,37:16
46,38:16
46,39:16
46,40:16
46,42:16
46,43:16
46,48:16
46,49:16
46,53:16
46,54:16
46,55:6
46,56:6
46,57:13
46,58:13
46,59:13
46,60:6
46,61:16
46,64:16
46,65:6
46,66:6
46,67:6
46,68:6
46,69:6
46,70:6
50,13:7
50,14:7
50,17:7
50,19:7
50,20:7
50,21:7
50,22:7
50,36:10
50,37:10
50,38:10
50,39:10
50,40:10
50,42:10
50,43:10
50,47:10
50,48:10
50,49:10
50,53:10
50,54:10
50,57:7
50,58:7
50,59:7
50,61:10
50,64:10
51,1:5
51,2:5
51,3:5
51,4:5
51,5:5
51,6:5
51,9:5
51,10:5
51,13:13
51,14:13
51,15:5
51,17:13
51,19:13
51,20:13
51,21:13
51,22:13
51,24:5
51,36:16
51,37:16
51,38:16
51,39:16
51,40:16
51,42:16
51,43:16
51,47:16
51,48:16
51,49:16
51,50:6
51,53:16
51,56:6
51,57:13
51,58:13
51,59:13
51,60:6
51,61:16
51,64:16
51,65:6
51,66:6
51,67:6
51,68:6
51,69:6
51,70:6
52,1:5
52,2:5
52,3:5
52,4:5
52,5:5
52,6:5
52,9:5
52,10:5
52,13:13
52,14:13
52,15:5
52,17:13
52,19:13
52,20:13
52,21:13
52,22:13
52,24:5
52,36:16
52,37:16
52,38:16
52,39:16
52,40:16
52,42:16
52,43:16
52,47:16
52,48:16
52,49:16
52,50:6
52,53:16
52,56:6
52,57:13
52,58:13
52,59:13
52,60:6
52,61:16
52,64:16
52,65:6
52,66:6
52,67:6
52,68:6
52,69:6
52,70:6
55,13:7
55,14:7
55,17:7
55,19:7
55,20:7
55,21:7
55,22:7
55,36:10
55,37:10
55,38:10
55,39:10
55,40:10
55,42:10
55,43:10
55,47:10
55,48:10
55,49:10
55,53:10
55,54:10
55,57:7
55,58:7
55,59:7
55,61:10
55,64:10
56,13:7
56,14:7
56,17:7
56,19:7
56,20:7
56,21:7
56,22:7
56,36:10
56,37:10
56,38:10
56,39:10
56,40:10
56,42:10
56,43:10
56,47:10
56,48:10
56,49:10
56,53:10
56,54:10
56,57:7
56,58:7
56,59:7
56,61:10
56,64:10
57,36:3
57,37:3
57,38:3
57,39:3
57,40:3
57,42:3
57,43:3
57,47:3
57,48:3
57,49:3
57,53:3
57,54:3
57,61:3
57,64:3
58,36:3
58,37:3
58,38:3
58,39:3
58,40:3
58,42:3
58,43:3
58,47:3
58,48:3
58,49:3
58,53:3
58,54:3
58,61:3
58,64:3
59,36:3
59,37:3
59,38:3
59,39:3
59,40:3
59,42:3
59,43:3
59,47:3
59,48:3
59,49:3
59,53:3
59,54:3
59,61:3
59,64:3
60,13:7
60,14:7
60,17:7
60,19:7
60,20:7
60,21:7
60,22:7
60,36:10
60,37:10
60,38:10
60,39:10
60,40:10
60,42:10
60,43:10
60,47:10
60,48:10
60,49:10
60,53:10
60,54:10
60,57:7
60,58:7
60,59:7
60,61:10
60,64:10
62,1:5
62,2:5
62,3:5
62,4:5
62,5:5
62,6:5
62,9:5
62,10:5
62,13:13
62,14:13
62,15:5
62,17:13
62,19:13
62,20:13
62,21:13
62,22:13
62,24:5
62,36:16
62,37:16
62,38:16
62,39:16
62,40:16
62,42:16
62,43:16
62,47:16
62,48:16
62,49:16
62,50:6
62,53:16
62,54:16
62,55:6
62,56:6
62,57:13
62,58:13
62,59:13
62,60:6
62,61:16
62,68:6
62,69:6
62,70:6
63,1:5
63,2:5
63,3:5
63,4:5
63,5:5
63,6:5
63,9:5
63,10:5
63,13:13
63,14:13
63,15:5
63,17:13
63,19:13
63,20:13
63,21:13
63,22:13
63,24:5
63,36:16
63,37:16
63,38:16
63,39:16
63,40:16
63,42:16
63,43:16
63,47:16
63,48:16
63,49:16
63,50:6
63,53:16
63,54:16
63,55:6
63,56:6
63,57:13
63,58:13
63,59:13
63,60:6
63,61:16
63,68:6
63,69:6
63,70:6
65,13:7
65,14:7
65,17:7
65,19:7
65,20:7
65,21:7
65,22:7
65,36:10
65,37:10
65,38:10
65,39:10
65,40:10
65,42:10
65,43:10
65,47:10
65,48:10
65,49:10
65,53:10
65,54:10
65,57:7
65,58:7
65,59:7
65,61:10
65,64:10
66,13:7
66,14:7
66,17:7
66,19:7
66,20:7
66,21:7
66,22:7
66,36:10
66,37:10
66,38:10
66,39:10
66,40:10
66,42:10
66,43:10
66,47:10
66,48:10
66,49:10
66,53:10
66,54:10
66,57:7
66,58:7
66,59:7
66,61:10
66,64:10
67,13:7
67,14:7
67,17:7
67,19:7
67,20:7
67,21:7
67,22:7
67,36:10
67,37:10
67,38:10
67,39:10
67,40:10
67,42:10
67,43:10
67,47:10
67,48:10
67,49:10
67,53:10
67,54:10
67,57:7
67,58:7
67,59:7
67,61:10
67,64:10
68,13:7
68,14:7
68,17:7
68,19:7
68,20:7
68,21:7
68,22:7
68,36:10
68,37:10
68,38:10
68,39:10
68,40:10
68,42:10
68,43:10
68,47:10
68,48:10
68,49:10
68,53:10
68,54:10
68,57:7
68,58:7
68,59:7
68,61:10
68,64:10
69,13:7
69,14:7
69,17:7
69,19:7
69,20:7
69,21:7
69,22:7
69,36:10
69,37:10
69,38:10
69,39:10
69,40:10
69,42:10
69,43:10
69,47:10
69,48:10
69,49:10
69,53:10
69,54:10
69,57:7
69,58:7
69,59:7
69,61:10
69,64:10
70,13:7
70,14:7
70,17:7
70,19:7
70,20:7
70,21:7
70,22:7
70,36:10
70,37:10
70,38:10
70,39:10
70,40:10
70,42:10
70,43:10
70,47:10
70,48:10
70,49:10
70,53:10
70,54:10
70,57:7
70,58:7
70,59:7
70,61:10
70,64:10

<end>

<optimal SALBP-1 value>
7


<rand seed>
467321153

